NAME lp_typeD_832
OBJSENSE MAX
ROWS
 N  OBJ
 L  c0      
 L  c1      
 G  c2      
 G  c3      
 L  c_key_upper
 G  c_key_lower
 G  _chain_constr_1
 G  _chain_constr_2
 G  _chain_constr_3
 G  _chain_cycle
COLUMNS
    x0        OBJ       5.1308395385621219e-01
    x0        c0        1.0606865251725814e+00
    x0        c1        1.0522301439990858e+00
    x0        c2        1.5975709636614401e+00
    x0        c3        8.5387953036079578e-01
    x0        c_key_upper  1.3877787697229811e+00
    x0        c_key_lower  1.3877787697229811e+00
    x1        OBJ       5.0164089632549136e-01
    x1        c0        0.544941631485707
    x1        c1        9.5767401614669767e-01
    x1        c2        1.0275630752491782e+00
    x1        c3        8.7284219689109976e-01
    x1        c_key_upper  1.6975397218445352e+00
    x1        c_key_lower  1.6975397218445352e+00
    x2        OBJ       1.4096981293688926e+00
    x2        c0        1.2159103747422748e+00
    x2        c1        0.92936775146892
    x2        c2        1.1672859566846536e+00
    x2        c3        9.2299005302831771e-01
    x2        c_key_upper  1.7105101179561857e+00
    x2        c_key_lower  1.7105101179561857e+00
    x3        OBJ       9.1252796332205044e-01
    x3        c0        6.2531754030089437e-01
    x3        c1        1.4345750177189163e+00
    x3        c2        8.0820198710428137e-01
    x3        c3        1.9638937581508371e+00
    x3        c_key_upper  1.9504456305035809e+00
    x3        c_key_lower  1.9504456305035809e+00
    x4        OBJ       1.4540599170935287e+00
    x4        c0        1.0418946668579407e+00
    x4        c1        1.5117009897220495e+00
    x4        c2        1.2424923869187539e+00
    x4        c3        7.8487053159327136e-01
    x4        c_key_upper  1.4311166291090196e+00
    x4        c_key_lower  1.4311166291090196e+00
    x5        OBJ       1.3349279712436370e+00
    x5        c0        1.7417893431330840e+00
    x5        c1        1.8705358379544876e+00
    x5        c2        8.0081067139046980e-01
    x5        c3        7.7610807607986942e-01
    x5        c_key_upper  1.6765795947188817e+00
    x5        c_key_lower  1.6765795947188817e+00
    _chain_var_0  _chain_constr_1  -1
    _chain_var_0  _chain_cycle  1
    _chain_var_1  _chain_constr_1  1
    _chain_var_1  _chain_constr_2  -1
    _chain_var_2  _chain_constr_2  1
    _chain_var_2  _chain_constr_3  -1
    _chain_var_3  _chain_constr_3  1
    _chain_var_3  _chain_cycle  -1
RHS
    RHS1      c0        2.5224342953349669e+01
    RHS1      c1        3.1470777255278339e+01
    RHS1      c2        8.52027840613765
    RHS1      c3        6.48980432356671
    RHS1      c_key_upper  4.9269852319275927e+01
    RHS1      c_key_lower  2.4634926159637963e+01
    RHS1      _chain_constr_1  10
    RHS1      _chain_constr_2  10
    RHS1      _chain_constr_3  10
    RHS1      _chain_cycle  10
BOUNDS
 UP BND1      x0        10
 UP BND1      x1        10
 UP BND1      x2        10
 UP BND1      x3        10
 UP BND1      x4        10
 UP BND1      x5        10
 UP BND1      _chain_var_0  100
 UP BND1      _chain_var_1  100
 UP BND1      _chain_var_2  100
 UP BND1      _chain_var_3  100
ENDATA
